72 64 9
0 1 0
1 2 0
2 3 0
3 4 0
4 5 0
5 6 0
6 7 0
7 8 0
9 10 1
10 11 1
11 12 1
12 13 1
13 14 1
14 15 1
15 16 1
16 17 1
18 19 2
19 20 2
20 21 2
21 22 2
22 23 2
23 24 2
24 25 2
25 26 2
27 28 3
28 29 3
29 30 3
30 31 3
31 32 3
32 33 3
33 34 3
34 35 3
36 37 4
37 38 4
38 39 4
39 40 4
40 41 4
41 42 4
42 43 4
43 44 4
45 46 5
46 47 5
47 48 5
48 49 5
49 50 5
50 51 5
51 52 5
52 53 5
54 55 6
55 56 6
56 57 6
57 58 6
58 59 6
59 60 6
60 61 6
61 62 6
63 64 7
64 65 7
65 66 7
66 67 7
67 68 7
68 69 7
69 70 7
70 71 7
1 0 887
1 1 447
2 2 234 8 234
2 3 159 0 159
2 4 201 7 201
2 5 555 3 555
3 6 463 2 463 3 463
3 7 456 1 456 2 456
3 8 753 5 753 1 753
2 0 799 7 799
2 1 779 4 779
2 2 567 8 567
3 3 267 1 267 5 267
1 4 478
2 5 444 7 444
1 6 123
1 7 789
3 8 21 7 21 1 21
2 0 999 2 999
3 1 999 0 999 2 999
1 2 852
3 3 483 4 483 0 483
1 4 520
2 5 120 0 120
1 6 456
3 7 630 5 630 4 630
1 8 427
2 0 666 2 666
3 1 666 3 666 7 666
1 2 140
3 3 753 4 753 6 753
3 4 145 0 145 5 145
2 5 142 1 142
1 6 789
3 7 258 3 258 2 258
2 8 520 7 520
1 0 663
1 1 25
2 2 222 5 222
2 3 420 7 420
2 4 699 8 699
2 5 578 3 578
2 6 876 2 876
2 7 741 6 741
1 8 142
2 0 333 8 333
2 1 558 4 558
3 2 558 1 558 0 558
2 3 159 7 159
3 4 875 2 875 6 875
3 5 965 7 965 4 965
2 6 543 8 543
1 7 36
1 8 534
1 0 222
2 1 886 7 886
1 2 965
2 3 25 2 25
3 4 633 1 633 7 633
1 5 412
2 6 210 8 210
3 7 985 4 985 6 985
2 8 157 1 157
2 0 114 1 114
1 1 541
2 2 412 5 412
3 3 863 1 863 8 863
2 4 222 3 222
1 5 25
1 6 123
3 7 214 6 214 0 214
1 8 896